c description: Random 3-CNF over 15 variables and 45 clauses
p cnf 15 45
-10 -11 14 0
-1 -9 10 0
7 -9 10 0
-2 9 13 0
4 -5 -12 0
5 -7 -8 0
-6 9 11 0
-5 10 -11 0
2 12 15 0
1 -2 -5 0
-6 -10 -14 0
5 13 15 0
1 7 8 0
3 11 14 0
-4 -8 14 0
-5 -12 14 0
-1 9 -10 0
2 5 8 0
-1 -11 -13 0
-1 9 -11 0
1 8 15 0
-10 12 13 0
-3 -7 12 0
-4 7 -14 0
12 13 -14 0
-4 -7 -8 0
-1 -10 -12 0
-1 -12 13 0
3 -11 -15 0
2 4 -15 0
-1 -3 -8 0
-3 4 -7 0
-5 9 -15 0
-4 7 10 0
-9 10 -14 0
1 14 -15 0
9 -10 -12 0
2 4 -11 0
8 9 14 0
3 11 13 0
6 -9 -11 0
-4 -7 13 0
-2 11 14 0
9 10 -15 0
-7 9 14 0